c Result of efficient AIG-to-CNF conversion using package CNF
p cnf 13 19
-2 12 3 0
-2 -12 -3 0
2 -12 3 0
2 12 -3 0
-3 11 4 0
-3 9 11 0
-3 10 11 0
3 -11 0
3 -9 -10 -4 0
-4 8 5 0
-4 -8 -5 0
4 -8 5 0
4 8 -5 0
-5 -6 -7 0
-5 6 7 0
5 6 -7 0
5 -6 7 0
-13 0
2 0

